============================[ Problem Statistics ]=============================|                                                                             ||  Number of variables:          4242                                         ||  Number of clauses:            9919                                         ||  Parse time:                   0.32 s                                       ||                                                                             |============================[ Search Statistics ]==============================| Conflicts |          ORIGINAL         |          LEARNT          | Progress ||           |    Vars  Clauses Literals |    Limit  Clauses Lit/Cl |          |===============================================================================|       100 |    1591     6124   490685 |     2245      100     53 | 62.501 % |===============================================================================restarts              : 2conflicts             : 183            (380 /sec)decisions             : 352            (0.00 % random) (732 /sec)propagations          : 10029          (20850 /sec)conflict literals     : 12590          (95.23 % deleted)CPU time              : 0.481 sSATISFIABLE